c Result of efficient AIG-to-CNF conversion using package CNF
p cnf 90 110
2 3 -6 9 -13 0
-2 -9 0
-2 13 0
-2 -3 0
-2 6 0
-3 33 34 35 4 0
3 -4 0
3 -35 0
3 -33 0
3 -34 0
-4 50 51 52 5 0
4 -5 0
4 -52 0
4 -50 0
4 -51 0
-5 36 37 38 0
5 -36 0
5 -38 0
5 -37 0
6 -26 48 49 7 0
-6 -7 0
-6 -49 0
-6 26 0
-6 -48 0
-7 46 47 53 8 0
7 -8 0
7 -53 0
7 -46 0
7 -47 0
-8 29 30 0
8 -29 0
8 -30 0
-9 31 32 10 12 0
9 -31 0
9 -12 0
9 -10 0
9 -32 0
-10 27 28 42 11 0
10 -11 0
10 -42 0
10 -27 0
10 -28 0
-11 39 40 41 0
11 -39 0
11 -41 0
11 -40 0
-12 43 44 45 0
12 -43 0
12 -45 0
12 -44 0
-13 -54 -20 0
-13 54 14 0
-13 -54 23 0
13 54 -14 0
13 -54 20 -23 0
14 -55 -15 0
14 55 18 -19 0
-14 55 19 0
-14 -55 15 0
-14 55 -18 0
15 -56 -16 0
15 56 -17 0
-15 -56 16 0
-15 56 17 0
16 57 -70 0
16 -57 -72 0
-16 -57 72 0
-16 57 70 0
-17 -57 68 0
-17 57 66 0
17 57 -66 0
17 -57 -68 0
18 -56 -57 64 0
18 -56 57 62 0
-18 56 0
-18 -57 -64 0
-18 57 -62 0
-19 56 -57 60 0
-19 56 57 58 0
19 -56 0
19 -57 -60 0
19 57 -58 0
20 -55 -56 22 0
20 -55 56 21 0
-20 55 0
-20 -56 -22 0
-20 56 -21 0
21 57 -82 0
21 -57 -84 0
-21 -57 84 0
-21 57 82 0
22 57 -86 0
22 -57 -88 0
-22 -57 88 0
-22 57 86 0
-23 55 -56 25 0
-23 55 56 24 0
23 -55 0
23 -56 -25 0
23 56 -24 0
24 57 -74 0
24 -57 -76 0
-24 -57 76 0
-24 57 74 0
25 57 -78 0
25 -57 -80 0
-25 -57 80 0
-25 57 78 0
-90 0
2 0

